0 2325
1 2271
2 2062
3 2061
4 2061
5 2030
6 1983
7 1964
8 1936
9 1852
10 1852
11 1852
12 1802
13 1802
14 1772
15 1746
16 1652
17 1652
18 1652
19 1652
20 1587
21 1587
22 1553
23 1553
24 1553
25 1553
26 1553
27 1518
28 1518
29 1518
30 1518
31 1495
32 1495
33 1495
34 1495
35 1432
36 1432
37 1408
38 1408
39 1408
40 1408
41 1408
42 1408
43 1408
44 1407
45 1407
46 1402
47 1402
48 1402
49 1402
50 1402
51 1402
52 1401
53 1382
54 1382
55 1354
56 1354
57 1354
58 1354
59 1354
60 1354
61 1354
62 1354
63 1354
64 1354
65 1351
66 1351
67 1337
68 1308
69 1308
70 1308
71 1289
72 1285
73 1285
74 1285
75 1285
76 1285
77 1285
78 1285
79 1275
80 1275
81 1275
82 1275
83 1275
84 1275
85 1275
86 1275
87 1275
88 1275
89 1275
90 1263
91 1263
92 1263
93 1263
94 1263
95 1263
96 1263
97 1263
98 1263
99 1263
100 1263
101 1263
102 1263
103 1263
104 1263
105 1263
106 1263
107 1263
108 1263
109 1263
110 1263
111 1263
112 1254
113 1247
114 1247
115 1238
116 1238
117 1238
118 1238
119 1238
120 1238
121 1238
122 1238
123 1238
124 1238
125 1238
126 1238
127 1238
128 1238
129 1238
130 1238
131 1238
132 1238
133 1238
134 1238
135 1238
136 1238
137 1238
138 1238
139 1238
140 1238
141 1238
142 1238
143 1238
144 1238
145 1238
146 1228
147 1228
148 1228
149 1228
150 1228
151 1228
152 1228
153 1228
154 1228
155 1228
156 1228
157 1228
158 1228
159 1228
160 1228
161 1228
162 1228
163 1228
164 1228
165 1228
166 1228
167 1226
168 1226
169 1226
170 1226
171 1226
172 1226
173 1226
174 1226
175 1226
176 1226
177 1226
178 1226
179 1226
180 1188
181 1188
182 1188
183 1188
184 1188
185 1163
186 1162
187 1162
188 1162
189 1162
190 1162
191 1162
192 1162
193 1162
194 1162
195 1161
196 1161
197 1161
198 1161
199 1161
200 1161
201 1161
202 1161
203 1161
204 1161
205 1161
206 1161
207 1161
208 1161
209 1161
210 1161
211 1161
212 1161
213 1161
214 1161
215 1161
216 1161
217 1161
218 1161
219 1161
220 1161
221 1161
222 1161
223 1161
224 1161
225 1161
226 1161
227 1161
228 1161
229 1157
230 1157
231 1157
232 1157
233 1157
234 1157
235 1155
236 1153
237 1153
238 1153
239 1153
240 1153
241 1146
242 1146
243 1146
244 1146
245 1146
246 1146
247 1146
248 1146
249 1146
250 1146
251 1146
252 1146
253 1146
254 1146
255 1146
256 1146
257 1146
258 1146
259 1146
260 1146
261 1146
262 1146
263 1146
264 1146
265 1146
266 1146
267 1146
268 1146
269 1146
270 1146
271 1146
272 1146
273 1146
274 1146
275 1146
276 1146
277 1146
278 1146
279 1146
280 1146
281 1146
282 1145
283 1145
284 1145
285 1145
286 1145
287 1145
288 1145
289 1145
290 1145
291 1145
292 1145
293 1145
294 1145
295 1145
296 1145
297 1145
298 1145
299 1145
300 1145
301 1145
302 1145
303 1145
304 1145
305 1145
306 1145
307 1145
308 1145
309 1145
310 1145
311 1145
312 1145
313 1145
314 1145
315 1145
316 1145
317 1145
318 1145
319 1145
320 1145
321 1145
322 1145
323 1145
324 1145
325 1145
326 1145
327 1145
328 1145
329 1145
330 1145
331 1145
332 1145
333 1145
334 1145
335 1145
336 1145
337 1145
338 1145
339 1145
340 1145
341 1145
342 1145
343 1145
344 1145
345 1145
346 1145
347 1145
348 1145
349 1145
350 1145
351 1145
352 1145
353 1145
354 1145
355 1145
356 1145
357 1145
358 1145
359 1145
360 1145
361 1145
362 1145
363 1145
364 1145
365 1145
366 1145
367 1145
368 1145
369 1145
370 1145
371 1145
372 1145
373 1145
374 1145
375 1145
376 1145
377 1145
378 1145
379 1145
380 1145
381 1145
382 1145
383 1145
384 1145
385 1145
386 1145
387 1145
388 1145
389 1145
390 1145
391 1145
392 1145
393 1145
394 1145
395 1145
396 1145
397 1145
398 1145
399 1145
400 1145
401 1145
402 1145
403 1145
404 1145
405 1145
406 1145
407 1145
408 1145
409 1145
410 1145
411 1145
412 1145
413 1145
414 1145
415 1145
416 1145
417 1145
418 1145
419 1145
420 1145
421 1145
422 1145
423 1145
424 1145
425 1145
426 1145
427 1145
428 1145
429 1145
430 1145
431 1145
432 1145
433 1145
434 1145
435 1145
436 1145
437 1145
438 1145
439 1145
440 1145
441 1145
442 1145
443 1145
444 1145
445 1145
446 1145
447 1145
448 1145
449 1145
450 1145
451 1145
452 1145
453 1145
454 1145
455 1145
456 1145
457 1145
458 1145
459 1145
460 1145
461 1145
462 1145
463 1145
464 1145
465 1145
466 1145
467 1145
468 1145
469 1145
470 1145
471 1145
472 1145
473 1145
474 1145
475 1145
476 1145
477 1145
478 1145
479 1145
480 1145
481 1145
482 1145
483 1145
484 1145
485 1145
486 1145
487 1145
488 1145
489 1145
490 1145
491 1145
492 1145
493 1145
494 1145
495 1145
496 1145
497 1145
498 1145
499 1145
500 1145
501 1145
502 1145
503 1145
504 1145
505 1145
506 1145
507 1145
508 1145
509 1145
510 1145
511 1145
512 1145
513 1145
514 1145
515 1145
516 1145
517 1145
518 1145
519 1145
520 1145
521 1145
522 1145
523 1145
524 1145
525 1145
526 1145
527 1145
528 1145
529 1145
530 1145
531 1145
532 1145
533 1145
534 1145
535 1145
536 1145
537 1145
538 1145
539 1145
540 1145
541 1145
542 1145
543 1145
544 1145
545 1145
546 1145
547 1145
548 1145
549 1145
550 1145
551 1145
552 1145
553 1145
554 1145
555 1145
556 1145
557 1145
558 1145
559 1145
560 1145
561 1145
562 1145
563 1145
564 1145
565 1145
566 1145
567 1145
568 1145
569 1145
570 1145
571 1145
572 1145
573 1145
574 1145
575 1145
576 1145
577 1145
578 1145
579 1145
580 1145
581 1145
582 1145
583 1145
584 1145
585 1145
586 1145
587 1145
588 1145
589 1145
590 1145
591 1145
592 1145
593 1145
594 1145
595 1145
596 1145
597 1145
598 1145
599 1145
600 1145
601 1145
602 1145
603 1145
604 1145
605 1145
606 1145
607 1145
608 1145
609 1145
610 1145
611 1145
612 1145
613 1145
614 1145
615 1145
616 1145
617 1145
618 1145
619 1145
620 1145
621 1145
622 1145
623 1145
624 1145
625 1145
626 1145
627 1145
628 1145
629 1145
630 1145
631 1145
632 1145
633 1145
634 1145
635 1145
636 1145
637 1145
638 1145
639 1145
640 1145
641 1145
642 1145
643 1145
644 1145
645 1145
646 1145
647 1145
648 1145
649 1145
650 1145
651 1145
652 1145
653 1145
654 1145
655 1145
656 1145
657 1145
658 1145
659 1145
660 1145
661 1145
662 1145
663 1145
664 1145
665 1145
666 1145
667 1145
668 1145
669 1145
670 1145
671 1145
672 1145
673 1145
674 1145
675 1145
676 1145
677 1145
678 1145
679 1145
680 1145
681 1145
682 1145
683 1145
684 1145
685 1145
686 1145
687 1145
688 1145
689 1145
690 1145
691 1145
692 1145
693 1145
694 1145
695 1145
696 1145
697 1145
698 1145
699 1145
700 1145
701 1145
702 1145
703 1145
704 1145
705 1145
706 1145
707 1145
708 1145
709 1145
710 1145
711 1145
712 1145
713 1145
714 1145
715 1145
716 1145
717 1145
718 1145
719 1145
720 1145
721 1145
722 1145
723 1145
724 1145
725 1145
726 1145
727 1145
728 1145
729 1145
730 1145
731 1145
732 1145
733 1145
734 1145
735 1145
736 1145
737 1145
738 1145
739 1145
740 1145
741 1145
742 1145
743 1145
744 1145
745 1145
746 1145
747 1145
748 1145
749 1145
750 1145
751 1145
752 1145
753 1145
754 1145
755 1145
756 1145
757 1145
758 1145
759 1145
760 1145
761 1145
762 1145
763 1145
764 1145
765 1145
766 1145
767 1145
768 1145
769 1145
770 1145
771 1145
772 1145
773 1145
774 1145
775 1145
776 1145
777 1145
778 1145
779 1145
780 1145
781 1145
782 1145
783 1145
784 1145
785 1145
786 1145
787 1145
788 1145
789 1145
790 1145
791 1145
792 1145
793 1145
794 1145
795 1145
796 1145
797 1145
798 1145
799 1145
800 1145
801 1145
802 1145
803 1145
804 1145
805 1145
806 1145
807 1145
808 1145
809 1145
810 1145
811 1145
812 1145
813 1145
814 1145
815 1145
816 1145
817 1145
818 1145
819 1145
820 1145
821 1145
822 1145
823 1145
824 1145
825 1145
826 1145
827 1145
828 1145
829 1145
830 1145
831 1145
832 1145
833 1145
834 1145
835 1145
836 1145
837 1145
838 1145
839 1145
840 1145
841 1145
842 1145
843 1145
844 1145
845 1145
846 1145
847 1145
848 1145
849 1145
850 1145
851 1145
852 1145
853 1145
854 1145
855 1145
856 1145
857 1145
858 1145
859 1145
860 1145
861 1145
862 1145
863 1145
864 1145
865 1145
866 1145
867 1145
868 1145
869 1145
870 1145
871 1145
872 1145
873 1145
874 1145
875 1145
876 1145
877 1145
878 1145
879 1145
880 1145
881 1145
882 1145
883 1145
884 1145
885 1145
886 1145
887 1145
888 1145
889 1145
890 1145
891 1145
892 1145
893 1145
894 1145
895 1145
896 1145
897 1145
898 1145
899 1145
900 1145
901 1145
902 1145
903 1145
904 1145
905 1145
906 1145
907 1145
908 1145
909 1145
910 1145
911 1145
912 1145
913 1145
914 1145
915 1145
916 1145
917 1145
918 1145
919 1145
920 1145
921 1145
922 1145
923 1145
924 1145
925 1145
926 1145
927 1145
928 1145
929 1145
930 1145
931 1145
932 1145
933 1145
934 1145
935 1145
936 1145
937 1145
938 1145
939 1145
940 1145
941 1145
942 1145
943 1145
944 1145
945 1145
946 1145
947 1145
948 1145
949 1145
950 1145
951 1145
952 1145
953 1145
954 1145
955 1145
956 1145
957 1145
958 1145
959 1145
960 1145
961 1145
962 1145
963 1145
964 1145
965 1145
966 1145
967 1145
968 1145
969 1145
970 1145
971 1145
972 1145
973 1145
974 1145
975 1145
976 1145
977 1145
978 1145
979 1145
980 1145
981 1145
982 1145
983 1145
984 1145
985 1145
986 1145
987 1145
988 1145
989 1145
990 1145
991 1145
992 1145
993 1145
994 1145
995 1145
996 1145
997 1145
998 1145
999 1145
Best: [[31,27,22,18,19,16,11,30,28],
       [7,3,24,29,10,23,25],
       [13,32,20,4,5,12,9,15],
       [17,2,14,8,6,26,21]], fitness: 1145
